100
128
64
49
23
8
26
17
12
61
10
41
47
20
10
61
18
13
11
52
19
9
45
15
32
12
49
31
55
59
35
31
30
30
43
64
14
36
11
11
46
18
43
17
27
16
16
11
15
22
10
2
30
9
18
45
19
17
64
19
58
13
40
17
8
19
5
20
26
31
32
11
11
23
2
25
14
15
44
28
17
2
3
23
51
1
18
33
51
50
24
61
44
38
26
50
21
26
15
1
60
37